Maximize
F 

Subject to
F - 15y56 - 5y91 - 5y17 - 5y110 - 15y189 - 15y221 - 10y243 - 20y267 - 10y36 - 15y46 - 10y199 - 10y210 - 10y68 - 5y257 - 20y44 - 15y61 - 5y128 - 15y53 - 5y77 - 10y95 - 15y86 - 10y161 - 20y113 - 5y19 - 15y146 - 10y42 - 10y114 - 10y162 - 15y112 - 15y200 - 20y201 - 5y29 - 5y258 - 5y241 - 20y124 = 0

x109x36x1 + x109x210x1 + x109x53x1 + x109x77x1 + x109x86x1 + x109x113x1 + x109x146x1 + x109x42x1 + x109x29x1 + x109x258x1 
<= 1
x59x61x2 + x59x128x2 + x59x53x2 + x59x77x2 + x59x146x2 + x59x114x2 + x59x112x2 + x59x201x2 + x59x241x2 
<= 2
x191x56x2 + x191x17x2 + x191x110x2 + x191x189x2 + x191x221x2 + x191x267x2 + x191x257x2 + x191x61x2 + x191x128x2 + x191x53x2 + x191x77x2 + x191x146x2 + x191x114x2 + x191x112x2 + x191x201x2 + x191x241x2 
<= 1
x138x257x2 + x138x53x2 + x138x146x2 + x138x114x2 + x138x112x2 + x138x201x2 + x138x241x2 
<= 2

x109x36x3 + x109x68x3 + x109x95x3 + x109x86x3 + x109x161x3 + x109x113x3 + x109x19x3 + x109x42x3 + x109x162x3 + x109x200x3 + x109x201x3 + x109x29x3 + x109x241x3 + x109x124x3 
<= 1
x212x161x3 + x212x42x3 + x212x162x3 + x212x200x3 + x212x201x3 + x212x29x3 + x212x241x3 + x212x124x3 
<= 2
x233x124x3 
<= 1
x51x124x3 
<= 1

x191x56x2 
- x56x0x2
- x56x189x2 - x56x257x2 - x56x61x2 - x56x146x2 - x56x112x2 - x56x241x2 
= 0

- x56x113x3 - x56x19x3 - x56x29x3 - x56x241x3 - x56x124x3 
= 0


- x91x46x1 - x91x199x1 - x91x44x1 - x91x53x1 - x91x77x1 - x91x86x1 - x91x113x1 - x91x146x1 - x91x42x1 - x91x29x1 - x91x258x1 
= 0


- x91x68x3 - x91x44x3 - x91x128x3 - x91x86x3 - x91x161x3 - x91x113x3 - x91x19x3 - x91x42x3 - x91x162x3 - x91x200x3 - x91x201x3 - x91x29x3 - x91x241x3 - x91x124x3 
= 0


x191x17x2 
- x17x0x2
- x17x128x2 - x17x53x2 - x17x77x2 - x17x146x2 - x17x114x2 - x17x112x2 - x17x201x2 - x17x241x2 
= 0



x191x110x2 
- x110x0x2
- x110x61x2 - x110x128x2 - x110x53x2 - x110x77x2 - x110x146x2 - x110x114x2 - x110x112x2 - x110x201x2 - x110x241x2 
= 0



x191x189x2 + x56x189x2 
- x189x0x2
- x189x257x2 - x189x112x2 
= 0



x191x221x2 
- x221x0x2
- x221x61x2 - x221x128x2 - x221x77x2 - x221x146x2 - x221x114x2 - x221x112x2 - x221x201x2 - x221x241x2 
= 0





- x243x44x3 - x243x128x3 - x243x86x3 - x243x161x3 - x243x113x3 - x243x19x3 - x243x42x3 - x243x162x3 - x243x200x3 - x243x201x3 - x243x29x3 - x243x241x3 - x243x124x3 
= 0


x191x267x2 
- x267x0x2
- x267x61x2 - x267x146x2 - x267x112x2 - x267x241x2 
= 0

- x267x113x3 - x267x19x3 - x267x29x3 - x267x241x3 - x267x124x3 
= 0

x109x36x1 
- x36x0x1
- x36x53x1 - x36x42x1 
= 0

x109x36x3 
- x36x0x3
- x36x161x3 - x36x42x3 - x36x162x3 - x36x200x3 - x36x201x3 
= 0

x91x46x1 
- x46x0x1
- x46x44x1 - x46x77x1 - x46x86x1 - x46x113x1 - x46x146x1 - x46x29x1 - x46x258x1 
= 0



x91x199x1 
- x199x0x1
- x199x77x1 - x199x113x1 - x199x146x1 - x199x29x1 - x199x258x1 
= 0



x109x210x1 
- x210x0x1

= 0





x109x68x3 + x91x68x3 
- x68x0x3
- x68x161x3 - x68x42x3 - x68x162x3 - x68x200x3 - x68x201x3 - x68x29x3 - x68x241x3 
= 0


x191x257x2 + x138x257x2 + x56x257x2 + x189x257x2 
- x257x0x2

= 0


x91x44x1 + x46x44x1 
- x44x0x1
- x44x77x1 - x44x29x1 - x44x258x1 
= 0

x91x44x3 + x243x44x3 
- x44x0x3
- x44x29x3 - x44x241x3 
= 0


x59x61x2 + x191x61x2 + x56x61x2 + x110x61x2 + x221x61x2 + x267x61x2 
- x61x0x2
- x61x112x2 
= 0



x59x128x2 + x191x128x2 + x17x128x2 + x110x128x2 + x221x128x2 
- x128x0x2
- x128x201x2 - x128x241x2 
= 0
x91x128x3 + x243x128x3 
- x128x0x3
- x128x86x3 - x128x200x3 - x128x201x3 - x128x29x3 - x128x241x3 
= 0

x109x53x1 + x91x53x1 + x36x53x1 
- x53x0x1

= 0
x59x53x2 + x191x53x2 + x138x53x2 + x17x53x2 + x110x53x2 
- x53x0x2
- x53x114x2 
= 0


x109x77x1 + x91x77x1 + x46x77x1 + x199x77x1 + x44x77x1 
- x77x0x1
- x77x29x1 - x77x258x1 
= 0
x59x77x2 + x191x77x2 + x17x77x2 + x110x77x2 + x221x77x2 
- x77x0x2
- x77x241x2 
= 0




x109x95x3 
- x95x0x3

= 0

x109x86x1 + x91x86x1 + x46x86x1 
- x86x0x1
- x86x29x1 - x86x258x1 
= 0

x109x86x3 + x91x86x3 + x243x86x3 + x128x86x3 
- x86x0x3
- x86x29x3 - x86x241x3 
= 0



x109x161x3 + x212x161x3 + x91x161x3 + x243x161x3 + x36x161x3 + x68x161x3 
- x161x0x3
- x161x42x3 - x161x162x3 - x161x200x3 - x161x201x3 
= 0

x109x113x1 + x91x113x1 + x46x113x1 + x199x113x1 
- x113x0x1
- x113x29x1 
= 0

x109x113x3 + x56x113x3 + x91x113x3 + x243x113x3 + x267x113x3 
- x113x0x3
- x113x29x3 - x113x241x3 
= 0



x109x19x3 + x56x19x3 + x91x19x3 + x243x19x3 + x267x19x3 
- x19x0x3
- x19x124x3 
= 0

x109x146x1 + x91x146x1 + x46x146x1 + x199x146x1 
- x146x0x1
- x146x29x1 
= 0
x59x146x2 + x191x146x2 + x138x146x2 + x56x146x2 + x17x146x2 + x110x146x2 + x221x146x2 + x267x146x2 
- x146x0x2
- x146x112x2 - x146x241x2 
= 0


x109x42x1 + x91x42x1 + x36x42x1 
- x42x0x1

= 0

x109x42x3 + x212x42x3 + x91x42x3 + x243x42x3 + x36x42x3 + x68x42x3 + x161x42x3 
- x42x0x3
- x42x201x3 
= 0


x59x114x2 + x191x114x2 + x138x114x2 + x17x114x2 + x110x114x2 + x221x114x2 + x53x114x2 
- x114x0x2

= 0




x109x162x3 + x212x162x3 + x91x162x3 + x243x162x3 + x36x162x3 + x68x162x3 + x161x162x3 
- x162x0x3
- x162x200x3 - x162x201x3 
= 0


x59x112x2 + x191x112x2 + x138x112x2 + x56x112x2 + x17x112x2 + x110x112x2 + x189x112x2 + x221x112x2 + x267x112x2 + x61x112x2 + x146x112x2 
- x112x0x2

= 0




x109x200x3 + x212x200x3 + x91x200x3 + x243x200x3 + x36x200x3 + x68x200x3 + x128x200x3 + x161x200x3 + x162x200x3 
- x200x0x3
- x200x201x3 
= 0


x59x201x2 + x191x201x2 + x138x201x2 + x17x201x2 + x110x201x2 + x221x201x2 + x128x201x2 
- x201x0x2

= 0
x109x201x3 + x212x201x3 + x91x201x3 + x243x201x3 + x36x201x3 + x68x201x3 + x128x201x3 + x161x201x3 + x42x201x3 + x162x201x3 + x200x201x3 
- x201x0x3

= 0

x109x29x1 + x91x29x1 + x46x29x1 + x199x29x1 + x44x29x1 + x77x29x1 + x86x29x1 + x113x29x1 + x146x29x1 
- x29x0x1

= 0

x109x29x3 + x212x29x3 + x56x29x3 + x91x29x3 + x243x29x3 + x267x29x3 + x68x29x3 + x44x29x3 + x128x29x3 + x86x29x3 + x113x29x3 
- x29x0x3

= 0

x109x258x1 + x91x258x1 + x46x258x1 + x199x258x1 + x44x258x1 + x77x258x1 + x86x258x1 
- x258x0x1

= 0




x59x241x2 + x191x241x2 + x138x241x2 + x56x241x2 + x17x241x2 + x110x241x2 + x221x241x2 + x267x241x2 + x128x241x2 + x77x241x2 + x146x241x2 
- x241x0x2

= 0
x109x241x3 + x212x241x3 + x56x241x3 + x91x241x3 + x243x241x3 + x267x241x3 + x68x241x3 + x44x241x3 + x128x241x3 + x86x241x3 + x113x241x3 
- x241x0x3

= 0



x109x124x3 + x212x124x3 + x233x124x3 + x51x124x3 + x56x124x3 + x91x124x3 + x243x124x3 + x267x124x3 + x19x124x3 
- x124x0x3

= 0

1y56 - x191x56x2 = 0
1y56 = 0
1y91 = 0
1y91 = 0
2y17 - x191x17x2 = 0
2y110 - x191x110x2 = 0
1y189 = 0
1y189 - x191x189x2 - x56x189x2 = 0
2y221 - x191x221x2 = 0
2y243 = 0
1y267 - x191x267x2 = 0
1y267 = 0
1y36 - x109x36x1 = 0
1y36 - x109x36x3 = 0
2y46 - x91x46x1 = 0
2y199 - x91x199x1 = 0
2y210 - x109x210x1 = 0
2y68 - x109x68x3 - x91x68x3 = 0
2y257 - x191x257x2 - x138x257x2 - x56x257x2 - x189x257x2 = 0
1y44 - x91x44x1 - x46x44x1 = 0
1y44 - x91x44x3 - x243x44x3 = 0
2y61 - x59x61x2 - x191x61x2 - x56x61x2 - x110x61x2 - x221x61x2 - x267x61x2 = 0
1y128 - x59x128x2 - x191x128x2 - x17x128x2 - x110x128x2 - x221x128x2 = 0
1y128 - x91x128x3 - x243x128x3 = 0
1y53 - x109x53x1 - x91x53x1 - x36x53x1 = 0
1y53 - x59x53x2 - x191x53x2 - x138x53x2 - x17x53x2 - x110x53x2 = 0
1y77 - x109x77x1 - x91x77x1 - x46x77x1 - x199x77x1 - x44x77x1 = 0
1y77 - x59x77x2 - x191x77x2 - x17x77x2 - x110x77x2 - x221x77x2 = 0
2y95 - x109x95x3 = 0
1y86 - x109x86x1 - x91x86x1 - x46x86x1 = 0
1y86 - x109x86x3 - x91x86x3 - x243x86x3 - x128x86x3 = 0
2y161 - x109x161x3 - x212x161x3 - x91x161x3 - x243x161x3 - x36x161x3 - x68x161x3 = 0
1y113 - x109x113x1 - x91x113x1 - x46x113x1 - x199x113x1 = 0
1y113 - x109x113x3 - x56x113x3 - x91x113x3 - x243x113x3 - x267x113x3 = 0
2y19 - x109x19x3 - x56x19x3 - x91x19x3 - x243x19x3 - x267x19x3 = 0
1y146 - x109x146x1 - x91x146x1 - x46x146x1 - x199x146x1 = 0
1y146 - x59x146x2 - x191x146x2 - x138x146x2 - x56x146x2 - x17x146x2 - x110x146x2 - x221x146x2 - x267x146x2 = 0
1y42 - x109x42x1 - x91x42x1 - x36x42x1 = 0
1y42 - x109x42x3 - x212x42x3 - x91x42x3 - x243x42x3 - x36x42x3 - x68x42x3 - x161x42x3 = 0
2y114 - x59x114x2 - x191x114x2 - x138x114x2 - x17x114x2 - x110x114x2 - x221x114x2 - x53x114x2 = 0
2y162 - x109x162x3 - x212x162x3 - x91x162x3 - x243x162x3 - x36x162x3 - x68x162x3 - x161x162x3 = 0
2y112 - x59x112x2 - x191x112x2 - x138x112x2 - x56x112x2 - x17x112x2 - x110x112x2 - x189x112x2 - x221x112x2 - x267x112x2 - x61x112x2 - x146x112x2 = 0
2y200 - x109x200x3 - x212x200x3 - x91x200x3 - x243x200x3 - x36x200x3 - x68x200x3 - x128x200x3 - x161x200x3 - x162x200x3 = 0
1y201 - x59x201x2 - x191x201x2 - x138x201x2 - x17x201x2 - x110x201x2 - x221x201x2 - x128x201x2 = 0
1y201 - x109x201x3 - x212x201x3 - x91x201x3 - x243x201x3 - x36x201x3 - x68x201x3 - x128x201x3 - x161x201x3 - x42x201x3 - x162x201x3 - x200x201x3 = 0
1y29 - x109x29x1 - x91x29x1 - x46x29x1 - x199x29x1 - x44x29x1 - x77x29x1 - x86x29x1 - x113x29x1 - x146x29x1 = 0
1y29 - x109x29x3 - x212x29x3 - x56x29x3 - x91x29x3 - x243x29x3 - x267x29x3 - x68x29x3 - x44x29x3 - x128x29x3 - x86x29x3 - x113x29x3 = 0
2y258 - x109x258x1 - x91x258x1 - x46x258x1 - x199x258x1 - x44x258x1 - x77x258x1 - x86x258x1 = 0
1y241 - x59x241x2 - x191x241x2 - x138x241x2 - x56x241x2 - x17x241x2 - x110x241x2 - x221x241x2 - x267x241x2 - x128x241x2 - x77x241x2 - x146x241x2 = 0
1y241 - x109x241x3 - x212x241x3 - x56x241x3 - x91x241x3 - x243x241x3 - x267x241x3 - x68x241x3 - x44x241x3 - x128x241x3 - x86x241x3 - x113x241x3 = 0
2y124 - x109x124x3 - x212x124x3 - x233x124x3 - x51x124x3 - x56x124x3 - x91x124x3 - x243x124x3 - x267x124x3 - x19x124x3 = 0

s109 - s36 + 8.837644z109z36z1 <= 7.62
s109 - s36 + 8.837644z109z36z3 <= 7.62
s109 - s210 + 8.967066z109z210z1 <= 7.62
s109 - s68 + 8.971935z109z68z3 <= 7.62
s109 - s53 + 8.858353z109z53z1 <= 7.62
s109 - s77 + 9.088793z109z77z1 <= 7.62
s109 - s95 + 8.918548z109z95z3 <= 7.62
s109 - s86 + 9.089746z109z86z1 <= 7.62
s109 - s86 + 9.089746z109z86z3 <= 7.62
s109 - s161 + 8.911095z109z161z3 <= 7.62
s109 - s113 + 9.037325z109z113z1 <= 7.62
s109 - s113 + 9.037325z109z113z3 <= 7.62
s109 - s19 + 8.998002z109z19z3 <= 7.62
s109 - s146 + 9.049786z109z146z1 <= 7.62
s109 - s42 + 8.901775z109z42z1 <= 7.62
s109 - s42 + 8.901775z109z42z3 <= 7.62
s109 - s162 + 8.947748z109z162z3 <= 7.62
s109 - s200 + 8.990346z109z200z3 <= 7.62
s109 - s201 + 8.996519z109z201z3 <= 7.62
s109 - s29 + 9.141538z109z29z1 <= 7.62
s109 - s29 + 9.141538z109z29z3 <= 7.62
s109 - s258 + 9.177227z109z258z1 <= 7.62
s109 - s241 + 9.191508z109z241z3 <= 7.62
s109 - s124 + 9.020534z109z124z3 <= 7.62
s212 - s161 + 9.094547z212z161z3 <= 7.86
s212 - s42 + 9.093509z212z42z3 <= 7.86
s212 - s162 + 9.124154z212z162z3 <= 7.86
s212 - s200 + 9.160503z212z200z3 <= 7.86
s212 - s201 + 9.166264z212z201z3 <= 7.86
s212 - s29 + 9.298151z212z29z3 <= 7.86
s212 - s241 + 9.346418z212z241z3 <= 7.86
s212 - s124 + 9.239182z212z124z3 <= 7.86
s233 - s124 + 9.204277z233z124z3 <= 7.86
s51 - s124 + 9.196880z51z124z3 <= 8.00
s59 - s61 + 8.978909z59z61z2 <= 7.73
s59 - s128 + 9.020031z59z128z2 <= 7.73
s59 - s53 + 8.997210z59z53z2 <= 7.73
s59 - s77 + 9.030674z59z77z2 <= 7.73
s59 - s146 + 9.001796z59z146z2 <= 7.73
s59 - s114 + 8.986738z59z114z2 <= 7.73
s59 - s112 + 9.007928z59z112z2 <= 7.73
s59 - s201 + 9.001796z59z201z2 <= 7.73
s59 - s241 + 9.135767z59z241z2 <= 7.73
s191 - s56 + 8.363992z191z56z2 <= 7.18
s191 - s17 + 8.674488z191z17z2 <= 7.18
s191 - s110 + 8.700540z191z110z2 <= 7.18
s191 - s189 + 8.374352z191z189z2 <= 7.18
s191 - s221 + 8.644947z191z221z2 <= 7.18
s191 - s267 + 8.492746z191z267z2 <= 7.18
s191 - s257 + 8.398986z191z257z2 <= 7.18
s191 - s61 + 8.566552z191z61z2 <= 7.18
s191 - s128 + 8.802423z191z128z2 <= 7.18
s191 - s53 + 8.657260z191z53z2 <= 7.18
s191 - s77 + 8.787287z191z77z2 <= 7.18
s191 - s146 + 8.694376z191z146z2 <= 7.18
s191 - s114 + 8.688791z191z114z2 <= 7.18
s191 - s112 + 8.678058z191z112z2 <= 7.18
s191 - s201 + 8.781125z191z201z2 <= 7.18
s191 - s241 + 8.903477z191z241z2 <= 7.18
s138 - s257 + 8.956523z138z257z2 <= 7.37
s138 - s53 + 8.799774z138z53z2 <= 7.37
s138 - s146 + 9.139595z138z146z2 <= 7.37
s138 - s114 + 8.858490z138z114z2 <= 7.37
s138 - s112 + 9.136388z138z112z2 <= 7.37
s138 - s201 + 9.028944z138z201z2 <= 7.37
s138 - s241 + 9.276409z138z241z2 <= 7.37
s56 - s189 + 9.714907z56z189z2 <= 8.70
s56 - s257 + 9.737712z56z257z2 <= 8.70
s56 - s61 + 10.013829z56z61z2 <= 8.70
s56 - s113 + 10.141462z56z113z3 <= 8.70
s56 - s19 + 10.003608z56z19z3 <= 8.70
s56 - s146 + 10.162505z56z146z2 <= 8.70
s56 - s112 + 10.136755z56z112z2 <= 8.70
s56 - s29 + 10.307289z56z29z3 <= 8.70
s56 - s241 + 10.403168z56z241z2 <= 8.70
s56 - s241 + 10.403168z56z241z3 <= 8.70
s56 - s124 + 9.856915z56z124z3 <= 8.70
s91 - s46 + 9.851264z91z46z1 <= 8.71
s91 - s199 + 9.903792z91z199z1 <= 8.71
s91 - s68 + 9.810222z91z68z3 <= 8.71
s91 - s44 + 9.856212z91z44z1 <= 8.71
s91 - s44 + 9.856212z91z44z3 <= 8.71
s91 - s128 + 9.825085z91z128z3 <= 8.71
s91 - s53 + 10.025876z91z53z1 <= 8.71
s91 - s77 + 9.870277z91z77z1 <= 8.71
s91 - s86 + 9.843333z91z86z1 <= 8.71
s91 - s86 + 9.843333z91z86z3 <= 8.71
s91 - s161 + 9.912759z91z161z3 <= 8.71
s91 - s113 + 9.936666z91z113z1 <= 8.71
s91 - s113 + 9.936666z91z113z3 <= 8.71
s91 - s19 + 10.029513z91z19z3 <= 8.71
s91 - s146 + 9.930907z91z146z1 <= 8.71
s91 - s42 + 9.943238z91z42z1 <= 8.71
s91 - s42 + 9.943238z91z42z3 <= 8.71
s91 - s162 + 9.889505z91z162z3 <= 8.71
s91 - s200 + 9.870139z91z200z3 <= 8.71
s91 - s201 + 9.870555z91z201z3 <= 8.71
s91 - s29 + 9.931610z91z29z1 <= 8.71
s91 - s29 + 9.931610z91z29z3 <= 8.71
s91 - s258 + 9.935586z91z258z1 <= 8.71
s91 - s241 + 9.950370z91z241z3 <= 8.71
s91 - s124 + 10.172697z91z124z3 <= 8.71
s17 - s128 + 9.929232z17z128z2 <= 8.72
s17 - s53 + 9.927632z17z53z2 <= 8.72
s17 - s77 + 9.989073z17z77z2 <= 8.72
s17 - s146 + 10.038678z17z146z2 <= 8.72
s17 - s114 + 9.882754z17z114z2 <= 8.72
s17 - s112 + 10.059935z17z112z2 <= 8.72
s17 - s201 + 9.828526z17z201z2 <= 8.72
s17 - s241 + 10.057376z17z241z2 <= 8.72
s110 - s61 + 9.988742z110z61z2 <= 8.72
s110 - s128 + 9.821980z110z128z2 <= 8.72
s110 - s53 + 10.074339z110z53z2 <= 8.72
s110 - s77 + 9.844007z110z77z2 <= 8.72
s110 - s146 + 9.900124z110z146z2 <= 8.72
s110 - s114 + 10.032481z110z114z2 <= 8.72
s110 - s112 + 9.927096z110z112z2 <= 8.72
s110 - s201 + 9.920000z110z201z2 <= 8.72
s110 - s241 + 9.937051z110z241z2 <= 8.72
s189 - s257 + 9.835901z189z257z2 <= 8.80
s189 - s112 + 10.246268z189z112z2 <= 8.80
s221 - s61 + 9.941735z221z61z2 <= 8.80
s221 - s128 + 10.002759z221z128z2 <= 8.80
s221 - s77 + 9.949815z221z77z2 <= 8.80
s221 - s146 + 9.870868z221z146z2 <= 8.80
s221 - s114 + 10.209010z221z114z2 <= 8.80
s221 - s112 + 9.884328z221z112z2 <= 8.80
s221 - s201 + 10.129107z221z201z2 <= 8.80
s221 - s241 + 10.067748z221z241z2 <= 8.80
s243 - s44 + 9.913920z243z44z3 <= 8.80
s243 - s128 + 9.974483z243z128z3 <= 8.80
s243 - s86 + 10.002759z243z86z3 <= 8.80
s243 - s161 + 10.137968z243z161z3 <= 8.80
s243 - s113 + 9.880278z243z113z3 <= 8.80
s243 - s19 + 9.989502z243z19z3 <= 8.80
s243 - s42 + 10.164722z243z42z3 <= 8.80
s243 - s162 + 10.122491z243z162z3 <= 8.80
s243 - s200 + 10.106956z243z200z3 <= 8.80
s243 - s201 + 10.107319z243z201z3 <= 8.80
s243 - s29 + 9.960555z243z29z3 <= 8.80
s243 - s241 + 10.042670z243z241z3 <= 8.80
s243 - s124 + 10.149984z243z124z3 <= 8.80
s267 - s61 + 9.940277z267z61z2 <= 8.86
s267 - s113 + 10.066989z267z113z3 <= 8.86
s267 - s19 + 9.934535z267z19z3 <= 8.86
s267 - s146 + 10.088035z267z146z2 <= 8.86
s267 - s112 + 10.062758z267z112z2 <= 8.86
s267 - s29 + 10.233154z267z29z3 <= 8.86
s267 - s241 + 10.331216z267z241z2 <= 8.86
s267 - s241 + 10.331216z267z241z3 <= 8.86
s267 - s124 + 9.978696z267z124z3 <= 8.86
s36 - s53 + 9.951082z36z53z1 <= 8.93
s36 - s161 + 10.065974z36z161z3 <= 8.93
s36 - s42 + 10.036875z36z42z1 <= 8.93
s36 - s42 + 10.036875z36z42z3 <= 8.93
s36 - s162 + 10.113061z36z162z3 <= 8.93
s36 - s200 + 10.167954z36z200z3 <= 8.93
s36 - s201 + 10.174496z36z201z3 <= 8.93
s46 - s44 + 9.989629z46z44z1 <= 8.93
s46 - s77 + 9.999602z46z77z1 <= 8.93
s46 - s86 + 10.089025z46z86z1 <= 8.93
s46 - s113 + 10.034350z46z113z1 <= 8.93
s46 - s146 + 10.020677z46z146z1 <= 8.93
s46 - s29 + 10.039949z46z29z1 <= 8.93
s46 - s258 + 10.107138z46z258z1 <= 8.93
s199 - s77 + 10.099814z199z77z1 <= 8.95
s199 - s113 + 9.985901z199z113z1 <= 8.95
s199 - s146 + 9.992687z199z146z1 <= 8.95
s199 - s29 + 10.119967z199z29z1 <= 8.95
s199 - s258 + 10.206471z199z258z1 <= 8.95
s68 - s161 + 10.138062z68z161z3 <= 9.01
s68 - s42 + 10.171383z68z42z3 <= 9.01
s68 - s162 + 10.100677z68z162z3 <= 9.01
s68 - s200 + 10.070000z68z200z3 <= 9.01
s68 - s201 + 10.070370z68z201z3 <= 9.01
s68 - s29 + 10.308516z68z29z3 <= 9.01
s68 - s241 + 10.294253z68z241z3 <= 9.01
s44 - s77 + 10.064907z44z77z1 <= 9.05
s44 - s29 + 10.125425z44z29z1 <= 9.05
s44 - s29 + 10.125425z44z29z3 <= 9.05
s44 - s258 + 10.168134z44z258z1 <= 9.05
s44 - s241 + 10.179443z44z241z3 <= 9.05
s61 - s112 + 10.172928z61z112z2 <= 9.05
s128 - s86 + 10.078284z128z86z3 <= 9.05
s128 - s200 + 10.259232z128z200z3 <= 9.05
s128 - s201 + 10.255913z128z201z2 <= 9.05
s128 - s201 + 10.255913z128z201z3 <= 9.05
s128 - s29 + 10.195602z128z29z3 <= 9.05
s128 - s241 + 10.178236z128z241z2 <= 9.05
s128 - s241 + 10.178236z128z241z3 <= 9.05
s53 - s114 + 10.170369z53z114z2 <= 9.11
s77 - s29 + 10.171463z77z29z1 <= 9.11
s77 - s258 + 10.217703z77z258z1 <= 9.11
s77 - s241 + 10.228133z77z241z2 <= 9.11
s86 - s29 + 10.301246z86z29z1 <= 9.14
s86 - s29 + 10.301246z86z29z3 <= 9.14
s86 - s258 + 10.248526z86z258z1 <= 9.14
s86 - s241 + 10.262928z86z241z3 <= 9.14
s161 - s42 + 10.173334z161z42z3 <= 9.14
s161 - s162 + 10.187140z161z162z3 <= 9.14
s161 - s200 + 10.241981z161z200z3 <= 9.14
s161 - s201 + 10.248526z161z201z3 <= 9.14
s113 - s29 + 10.317199z113z29z1 <= 9.15
s113 - s29 + 10.317199z113z29z3 <= 9.15
s113 - s241 + 10.419979z113z241z3 <= 9.15
s19 - s124 + 10.337067z19z124z3 <= 9.17
s146 - s112 + 10.203333z146z112z2 <= 9.17
s146 - s29 + 10.316212z146z29z1 <= 9.17
s146 - s241 + 10.419622z146z241z2 <= 9.17
s42 - s201 + 10.329204z42z201z3 <= 9.19
s162 - s200 + 10.284974z162z200z3 <= 9.23
s162 - s201 + 10.291463z162z201z3 <= 9.23
s200 - s201 + 10.316668z200z201z3 <= 9.31

x109x36x1 - 1z109z36z1 <= 0
x109x36x3 - 1z109z36z3 <= 0
x109x210x1 - 2z109z210z1 <= 0
x109x68x3 - 2z109z68z3 <= 0
x109x53x1 - 1z109z53z1 <= 0
x109x77x1 - 1z109z77z1 <= 0
x109x95x3 - 2z109z95z3 <= 0
x109x86x1 - 1z109z86z1 <= 0
x109x86x3 - 1z109z86z3 <= 0
x109x161x3 - 2z109z161z3 <= 0
x109x113x1 - 1z109z113z1 <= 0
x109x113x3 - 1z109z113z3 <= 0
x109x19x3 - 2z109z19z3 <= 0
x109x146x1 - 1z109z146z1 <= 0
x109x42x1 - 1z109z42z1 <= 0
x109x42x3 - 1z109z42z3 <= 0
x109x162x3 - 2z109z162z3 <= 0
x109x200x3 - 2z109z200z3 <= 0
x109x201x3 - 1z109z201z3 <= 0
x109x29x1 - 1z109z29z1 <= 0
x109x29x3 - 1z109z29z3 <= 0
x109x258x1 - 2z109z258z1 <= 0
x109x241x3 - 1z109z241z3 <= 0
x109x124x3 - 2z109z124z3 <= 0
x212x161x3 - 2z212z161z3 <= 0
x212x42x3 - 1z212z42z3 <= 0
x212x162x3 - 2z212z162z3 <= 0
x212x200x3 - 2z212z200z3 <= 0
x212x201x3 - 1z212z201z3 <= 0
x212x29x3 - 1z212z29z3 <= 0
x212x241x3 - 1z212z241z3 <= 0
x212x124x3 - 2z212z124z3 <= 0
x233x124x3 - 2z233z124z3 <= 0
x51x124x3 - 2z51z124z3 <= 0
x59x61x2 - 2z59z61z2 <= 0
x59x128x2 - 1z59z128z2 <= 0
x59x53x2 - 1z59z53z2 <= 0
x59x77x2 - 1z59z77z2 <= 0
x59x146x2 - 1z59z146z2 <= 0
x59x114x2 - 2z59z114z2 <= 0
x59x112x2 - 2z59z112z2 <= 0
x59x201x2 - 1z59z201z2 <= 0
x59x241x2 - 1z59z241z2 <= 0
x191x56x2 - 1z191z56z2 <= 0
x191x17x2 - 2z191z17z2 <= 0
x191x110x2 - 2z191z110z2 <= 0
x191x189x2 - 1z191z189z2 <= 0
x191x221x2 - 2z191z221z2 <= 0
x191x267x2 - 1z191z267z2 <= 0
x191x257x2 - 2z191z257z2 <= 0
x191x61x2 - 2z191z61z2 <= 0
x191x128x2 - 1z191z128z2 <= 0
x191x53x2 - 1z191z53z2 <= 0
x191x77x2 - 1z191z77z2 <= 0
x191x146x2 - 1z191z146z2 <= 0
x191x114x2 - 2z191z114z2 <= 0
x191x112x2 - 2z191z112z2 <= 0
x191x201x2 - 1z191z201z2 <= 0
x191x241x2 - 1z191z241z2 <= 0
x138x257x2 - 2z138z257z2 <= 0
x138x53x2 - 1z138z53z2 <= 0
x138x146x2 - 1z138z146z2 <= 0
x138x114x2 - 2z138z114z2 <= 0
x138x112x2 - 2z138z112z2 <= 0
x138x201x2 - 1z138z201z2 <= 0
x138x241x2 - 1z138z241z2 <= 0
x56x189x2 - 1z56z189z2 <= 0
x56x257x2 - 2z56z257z2 <= 0
x56x61x2 - 2z56z61z2 <= 0
x56x113x3 - 1z56z113z3 <= 0
x56x19x3 - 2z56z19z3 <= 0
x56x146x2 - 1z56z146z2 <= 0
x56x112x2 - 2z56z112z2 <= 0
x56x29x3 - 1z56z29z3 <= 0
x56x241x2 - 1z56z241z2 <= 0
x56x241x3 - 1z56z241z3 <= 0
x56x124x3 - 2z56z124z3 <= 0
x56x0x2 <= 1
x56x0x3 <= 1
x91x46x1 - 2z91z46z1 <= 0
x91x199x1 - 2z91z199z1 <= 0
x91x68x3 - 2z91z68z3 <= 0
x91x44x1 - 1z91z44z1 <= 0
x91x44x3 - 1z91z44z3 <= 0
x91x128x3 - 1z91z128z3 <= 0
x91x53x1 - 1z91z53z1 <= 0
x91x77x1 - 1z91z77z1 <= 0
x91x86x1 - 1z91z86z1 <= 0
x91x86x3 - 1z91z86z3 <= 0
x91x161x3 - 2z91z161z3 <= 0
x91x113x1 - 1z91z113z1 <= 0
x91x113x3 - 1z91z113z3 <= 0
x91x19x3 - 2z91z19z3 <= 0
x91x146x1 - 1z91z146z1 <= 0
x91x42x1 - 1z91z42z1 <= 0
x91x42x3 - 1z91z42z3 <= 0
x91x162x3 - 2z91z162z3 <= 0
x91x200x3 - 2z91z200z3 <= 0
x91x201x3 - 1z91z201z3 <= 0
x91x29x1 - 1z91z29z1 <= 0
x91x29x3 - 1z91z29z3 <= 0
x91x258x1 - 2z91z258z1 <= 0
x91x241x3 - 1z91z241z3 <= 0
x91x124x3 - 2z91z124z3 <= 0
x91x0x1 <= 1
x91x0x3 <= 1
x17x128x2 - 1z17z128z2 <= 0
x17x53x2 - 1z17z53z2 <= 0
x17x77x2 - 1z17z77z2 <= 0
x17x146x2 - 1z17z146z2 <= 0
x17x114x2 - 2z17z114z2 <= 0
x17x112x2 - 2z17z112z2 <= 0
x17x201x2 - 1z17z201z2 <= 0
x17x241x2 - 1z17z241z2 <= 0
x17x0x2 <= 2
x110x61x2 - 2z110z61z2 <= 0
x110x128x2 - 1z110z128z2 <= 0
x110x53x2 - 1z110z53z2 <= 0
x110x77x2 - 1z110z77z2 <= 0
x110x146x2 - 1z110z146z2 <= 0
x110x114x2 - 2z110z114z2 <= 0
x110x112x2 - 2z110z112z2 <= 0
x110x201x2 - 1z110z201z2 <= 0
x110x241x2 - 1z110z241z2 <= 0
x110x0x2 <= 2
x189x257x2 - 2z189z257z2 <= 0
x189x112x2 - 2z189z112z2 <= 0
x189x0x1 <= 1
x189x0x2 <= 1
x221x61x2 - 2z221z61z2 <= 0
x221x128x2 - 1z221z128z2 <= 0
x221x77x2 - 1z221z77z2 <= 0
x221x146x2 - 1z221z146z2 <= 0
x221x114x2 - 2z221z114z2 <= 0
x221x112x2 - 2z221z112z2 <= 0
x221x201x2 - 1z221z201z2 <= 0
x221x241x2 - 1z221z241z2 <= 0
x221x0x2 <= 2
x243x44x3 - 1z243z44z3 <= 0
x243x128x3 - 1z243z128z3 <= 0
x243x86x3 - 1z243z86z3 <= 0
x243x161x3 - 2z243z161z3 <= 0
x243x113x3 - 1z243z113z3 <= 0
x243x19x3 - 2z243z19z3 <= 0
x243x42x3 - 1z243z42z3 <= 0
x243x162x3 - 2z243z162z3 <= 0
x243x200x3 - 2z243z200z3 <= 0
x243x201x3 - 1z243z201z3 <= 0
x243x29x3 - 1z243z29z3 <= 0
x243x241x3 - 1z243z241z3 <= 0
x243x124x3 - 2z243z124z3 <= 0
x243x0x3 <= 2
x267x61x2 - 2z267z61z2 <= 0
x267x113x3 - 1z267z113z3 <= 0
x267x19x3 - 2z267z19z3 <= 0
x267x146x2 - 1z267z146z2 <= 0
x267x112x2 - 2z267z112z2 <= 0
x267x29x3 - 1z267z29z3 <= 0
x267x241x2 - 1z267z241z2 <= 0
x267x241x3 - 1z267z241z3 <= 0
x267x124x3 - 2z267z124z3 <= 0
x267x0x2 <= 1
x267x0x3 <= 1
x36x53x1 - 1z36z53z1 <= 0
x36x161x3 - 2z36z161z3 <= 0
x36x42x1 - 1z36z42z1 <= 0
x36x42x3 - 1z36z42z3 <= 0
x36x162x3 - 2z36z162z3 <= 0
x36x200x3 - 2z36z200z3 <= 0
x36x201x3 - 1z36z201z3 <= 0
x36x0x1 <= 1
x36x0x3 <= 1
x46x44x1 - 1z46z44z1 <= 0
x46x77x1 - 1z46z77z1 <= 0
x46x86x1 - 1z46z86z1 <= 0
x46x113x1 - 1z46z113z1 <= 0
x46x146x1 - 1z46z146z1 <= 0
x46x29x1 - 1z46z29z1 <= 0
x46x258x1 - 2z46z258z1 <= 0
x46x0x1 <= 2
x199x77x1 - 1z199z77z1 <= 0
x199x113x1 - 1z199z113z1 <= 0
x199x146x1 - 1z199z146z1 <= 0
x199x29x1 - 1z199z29z1 <= 0
x199x258x1 - 2z199z258z1 <= 0
x199x0x1 <= 2
x210x0x1 <= 2
x68x161x3 - 2z68z161z3 <= 0
x68x42x3 - 1z68z42z3 <= 0
x68x162x3 - 2z68z162z3 <= 0
x68x200x3 - 2z68z200z3 <= 0
x68x201x3 - 1z68z201z3 <= 0
x68x29x3 - 1z68z29z3 <= 0
x68x241x3 - 1z68z241z3 <= 0
x68x0x3 <= 2
x257x0x2 <= 2
x44x77x1 - 1z44z77z1 <= 0
x44x29x1 - 1z44z29z1 <= 0
x44x29x3 - 1z44z29z3 <= 0
x44x258x1 - 2z44z258z1 <= 0
x44x241x3 - 1z44z241z3 <= 0
x44x0x1 <= 1
x44x0x3 <= 1
x61x112x2 - 2z61z112z2 <= 0
x61x0x2 <= 2
x128x86x3 - 1z128z86z3 <= 0
x128x200x3 - 2z128z200z3 <= 0
x128x201x2 - 1z128z201z2 <= 0
x128x201x3 - 1z128z201z3 <= 0
x128x29x3 - 1z128z29z3 <= 0
x128x241x2 - 1z128z241z2 <= 0
x128x241x3 - 1z128z241z3 <= 0
x128x0x2 <= 1
x128x0x3 <= 1
x53x114x2 - 2z53z114z2 <= 0
x53x0x1 <= 1
x53x0x2 <= 1
x77x29x1 - 1z77z29z1 <= 0
x77x258x1 - 2z77z258z1 <= 0
x77x241x2 - 1z77z241z2 <= 0
x77x0x1 <= 1
x77x0x2 <= 1
x95x0x3 <= 2
x86x29x1 - 1z86z29z1 <= 0
x86x29x3 - 1z86z29z3 <= 0
x86x258x1 - 2z86z258z1 <= 0
x86x241x3 - 1z86z241z3 <= 0
x86x0x1 <= 1
x86x0x3 <= 1
x161x42x3 - 1z161z42z3 <= 0
x161x162x3 - 2z161z162z3 <= 0
x161x200x3 - 2z161z200z3 <= 0
x161x201x3 - 1z161z201z3 <= 0
x161x0x3 <= 2
x113x29x1 - 1z113z29z1 <= 0
x113x29x3 - 1z113z29z3 <= 0
x113x241x3 - 1z113z241z3 <= 0
x113x0x1 <= 1
x113x0x3 <= 1
x19x124x3 - 2z19z124z3 <= 0
x19x0x3 <= 2
x146x112x2 - 2z146z112z2 <= 0
x146x29x1 - 1z146z29z1 <= 0
x146x241x2 - 1z146z241z2 <= 0
x146x0x1 <= 1
x146x0x2 <= 1
x42x201x3 - 1z42z201z3 <= 0
x42x0x1 <= 1
x42x0x3 <= 1
x114x0x2 <= 2
x162x200x3 - 2z162z200z3 <= 0
x162x201x3 - 1z162z201z3 <= 0
x162x0x3 <= 2
x112x0x2 <= 2
x200x201x3 - 1z200z201z3 <= 0
x200x0x3 <= 2
x201x0x2 <= 1
x201x0x3 <= 1
x29x0x1 <= 1
x29x0x3 <= 1
x258x0x1 <= 2
x241x0x2 <= 1
x241x0x3 <= 1
x124x0x3 <= 2

Bounds
s109 = 7.622650
s212 = 7.858657
s233 = 7.859023
s51 = 7.996880
s59 = 7.733054
s101 = 8.079144
s25 = 8.094467
s231 = 8.232315
s261 = 8.349064
s38 = 8.518950
s232 = 8.543778
s194 = 8.531943
s191 = 7.178280
s138 = 7.368910
7.700000 <= s56 <= 8.700000
7.710000 <= s91 <= 8.710000
7.720000 <= s17 <= 8.720000
7.720000 <= s110 <= 8.720000
7.800000 <= s189 <= 8.800000
7.800000 <= s221 <= 8.800000
7.800000 <= s243 <= 8.800000
7.860000 <= s267 <= 8.860000
7.930000 <= s36 <= 8.930000
7.930000 <= s46 <= 8.930000
7.950000 <= s199 <= 8.950000
7.980000 <= s210 <= 8.980000
8.010000 <= s68 <= 9.010000
8.030000 <= s257 <= 9.030000
8.050000 <= s44 <= 9.050000
8.050000 <= s61 <= 9.050000
8.050000 <= s128 <= 9.050000
8.110000 <= s53 <= 9.110000
8.110000 <= s77 <= 9.110000
8.110000 <= s95 <= 9.110000
8.140000 <= s86 <= 9.140000
8.140000 <= s161 <= 9.140000
8.150000 <= s113 <= 9.150000
8.170000 <= s19 <= 9.170000
8.170000 <= s146 <= 9.170000
8.190000 <= s42 <= 9.190000
8.230000 <= s114 <= 9.230000
8.230000 <= s162 <= 9.230000
8.250000 <= s112 <= 9.250000
8.310000 <= s200 <= 9.310000
8.330000 <= s201 <= 9.330000
8.350000 <= s29 <= 9.350000
8.380000 <= s258 <= 9.380000
8.430000 <= s241 <= 9.430000
8.440000 <= s124 <= 9.440000

General
x109x36x1 x109x36x3 x109x210x1 x109x68x3 x109x53x1 x109x77x1 x109x95x3 x109x86x1 x109x86x3 x109x161x3 x109x113x1 x109x113x3 x109x19x3 x109x146x1 x109x42x1 x109x42x3 x109x162x3 x109x200x3 x109x201x3 x109x29x1 x109x29x3 x109x258x1 x109x241x3 x109x124x3 
x212x161x3 x212x42x3 x212x162x3 x212x200x3 x212x201x3 x212x29x3 x212x241x3 x212x124x3 
x233x124x3 
x51x124x3 
x59x61x2 x59x128x2 x59x53x2 x59x77x2 x59x146x2 x59x114x2 x59x112x2 x59x201x2 x59x241x2 







x191x56x2 x191x17x2 x191x110x2 x191x189x2 x191x221x2 x191x267x2 x191x257x2 x191x61x2 x191x128x2 x191x53x2 x191x77x2 x191x146x2 x191x114x2 x191x112x2 x191x201x2 x191x241x2 
x138x257x2 x138x53x2 x138x146x2 x138x114x2 x138x112x2 x138x201x2 x138x241x2 
x56x189x2 x56x257x2 x56x61x2 x56x113x3 x56x19x3 x56x146x2 x56x112x2 x56x29x3 x56x241x2 x56x241x3 x56x124x3 x56x0x2 x56x0x3 
x91x46x1 x91x199x1 x91x68x3 x91x44x1 x91x44x3 x91x128x3 x91x53x1 x91x77x1 x91x86x1 x91x86x3 x91x161x3 x91x113x1 x91x113x3 x91x19x3 x91x146x1 x91x42x1 x91x42x3 x91x162x3 x91x200x3 x91x201x3 x91x29x1 x91x29x3 x91x258x1 x91x241x3 x91x124x3 x91x0x1 x91x0x3 
x17x128x2 x17x53x2 x17x77x2 x17x146x2 x17x114x2 x17x112x2 x17x201x2 x17x241x2 x17x0x2 
x110x61x2 x110x128x2 x110x53x2 x110x77x2 x110x146x2 x110x114x2 x110x112x2 x110x201x2 x110x241x2 x110x0x2 
x189x257x2 x189x112x2 x189x0x1 x189x0x2 
x221x61x2 x221x128x2 x221x77x2 x221x146x2 x221x114x2 x221x112x2 x221x201x2 x221x241x2 x221x0x2 
x243x44x3 x243x128x3 x243x86x3 x243x161x3 x243x113x3 x243x19x3 x243x42x3 x243x162x3 x243x200x3 x243x201x3 x243x29x3 x243x241x3 x243x124x3 x243x0x3 
x267x61x2 x267x113x3 x267x19x3 x267x146x2 x267x112x2 x267x29x3 x267x241x2 x267x241x3 x267x124x3 x267x0x2 x267x0x3 
x36x53x1 x36x161x3 x36x42x1 x36x42x3 x36x162x3 x36x200x3 x36x201x3 x36x0x1 x36x0x3 
x46x44x1 x46x77x1 x46x86x1 x46x113x1 x46x146x1 x46x29x1 x46x258x1 x46x0x1 
x199x77x1 x199x113x1 x199x146x1 x199x29x1 x199x258x1 x199x0x1 
x210x0x1 
x68x161x3 x68x42x3 x68x162x3 x68x200x3 x68x201x3 x68x29x3 x68x241x3 x68x0x3 
x257x0x2 
x44x77x1 x44x29x1 x44x29x3 x44x258x1 x44x241x3 x44x0x1 x44x0x3 
x61x112x2 x61x0x2 
x128x86x3 x128x200x3 x128x201x2 x128x201x3 x128x29x3 x128x241x2 x128x241x3 x128x0x2 x128x0x3 
x53x114x2 x53x0x1 x53x0x2 
x77x29x1 x77x258x1 x77x241x2 x77x0x1 x77x0x2 
x95x0x3 
x86x29x1 x86x29x3 x86x258x1 x86x241x3 x86x0x1 x86x0x3 
x161x42x3 x161x162x3 x161x200x3 x161x201x3 x161x0x3 
x113x29x1 x113x29x3 x113x241x3 x113x0x1 x113x0x3 
x19x124x3 x19x0x3 
x146x112x2 x146x29x1 x146x241x2 x146x0x1 x146x0x2 
x42x201x3 x42x0x1 x42x0x3 
x114x0x2 
x162x200x3 x162x201x3 x162x0x3 
x112x0x2 
x200x201x3 x200x0x3 
x201x0x2 x201x0x3 
x29x0x1 x29x0x3 
x258x0x1 
x241x0x2 x241x0x3 
x124x0x3 

Binaries
y56 y91 y17 y110 y189 y221 y243 y267 y36 y46 y199 y210 y68 y257 y44 y61 y128 y53 y77 y95 y86 y161 y113 y19 y146 y42 y114 y162 y112 y200 y201 y29 y258 y241 y124 
z109z36z1 z109z36z3 z109z210z1 z109z68z3 z109z53z1 z109z77z1 z109z95z3 z109z86z1 z109z86z3 z109z161z3 z109z113z1 z109z113z3 z109z19z3 z109z146z1 z109z42z1 z109z42z3 z109z162z3 z109z200z3 z109z201z3 z109z29z1 z109z29z3 z109z258z1 z109z241z3 z109z124z3 
z212z161z3 z212z42z3 z212z162z3 z212z200z3 z212z201z3 z212z29z3 z212z241z3 z212z124z3 
z233z124z3 
z51z124z3 
z59z61z2 z59z128z2 z59z53z2 z59z77z2 z59z146z2 z59z114z2 z59z112z2 z59z201z2 z59z241z2 







z191z56z2 z191z17z2 z191z110z2 z191z189z2 z191z221z2 z191z267z2 z191z257z2 z191z61z2 z191z128z2 z191z53z2 z191z77z2 z191z146z2 z191z114z2 z191z112z2 z191z201z2 z191z241z2 
z138z257z2 z138z53z2 z138z146z2 z138z114z2 z138z112z2 z138z201z2 z138z241z2 
z56z189z2 z56z257z2 z56z61z2 z56z113z3 z56z19z3 z56z146z2 z56z112z2 z56z29z3 z56z241z2 z56z241z3 z56z124z3 
z91z46z1 z91z199z1 z91z68z3 z91z44z1 z91z44z3 z91z128z3 z91z53z1 z91z77z1 z91z86z1 z91z86z3 z91z161z3 z91z113z1 z91z113z3 z91z19z3 z91z146z1 z91z42z1 z91z42z3 z91z162z3 z91z200z3 z91z201z3 z91z29z1 z91z29z3 z91z258z1 z91z241z3 z91z124z3 
z17z128z2 z17z53z2 z17z77z2 z17z146z2 z17z114z2 z17z112z2 z17z201z2 z17z241z2 
z110z61z2 z110z128z2 z110z53z2 z110z77z2 z110z146z2 z110z114z2 z110z112z2 z110z201z2 z110z241z2 
z189z257z2 z189z112z2 
z221z61z2 z221z128z2 z221z77z2 z221z146z2 z221z114z2 z221z112z2 z221z201z2 z221z241z2 
z243z44z3 z243z128z3 z243z86z3 z243z161z3 z243z113z3 z243z19z3 z243z42z3 z243z162z3 z243z200z3 z243z201z3 z243z29z3 z243z241z3 z243z124z3 
z267z61z2 z267z113z3 z267z19z3 z267z146z2 z267z112z2 z267z29z3 z267z241z2 z267z241z3 z267z124z3 
z36z53z1 z36z161z3 z36z42z1 z36z42z3 z36z162z3 z36z200z3 z36z201z3 
z46z44z1 z46z77z1 z46z86z1 z46z113z1 z46z146z1 z46z29z1 z46z258z1 
z199z77z1 z199z113z1 z199z146z1 z199z29z1 z199z258z1 

z68z161z3 z68z42z3 z68z162z3 z68z200z3 z68z201z3 z68z29z3 z68z241z3 

z44z77z1 z44z29z1 z44z29z3 z44z258z1 z44z241z3 
z61z112z2 
z128z86z3 z128z200z3 z128z201z2 z128z201z3 z128z29z3 z128z241z2 z128z241z3 
z53z114z2 
z77z29z1 z77z258z1 z77z241z2 

z86z29z1 z86z29z3 z86z258z1 z86z241z3 
z161z42z3 z161z162z3 z161z200z3 z161z201z3 
z113z29z1 z113z29z3 z113z241z3 
z19z124z3 
z146z112z2 z146z29z1 z146z241z2 
z42z201z3 

z162z200z3 z162z201z3 

z200z201z3 






End